\ENCODING=ISO-8859-1
\Problem name: ilog.cplex

Minimize
 obj: - 0.0131725 x1 - 0.0131725 x2 - 0.0131725 x3 - 0.0131725 x4 - 0.011975 x5
      - 0.011975 x6 - 0.011975 x7 - 0.011975 x8 - 0.011615 x9 - 0.011615 x10
      - 0.011615 x11 - 0.011615 x12 - 0.011355 x13 - 0.011355 x14
      - 0.011355 x15 - 0.011355 x16 - 0.0108625 x17 - 0.0108625 x18
      - 0.0108625 x19 - 0.0108625 x20 - 0.0104775 x21 - 0.0104775 x22
      - 0.0104775 x23 - 0.0104775 x24 - 0.010795 x25 - 0.010795 x26
      - 0.010795 x27 - 0.010795 x28 - 0.01176 x29 - 0.01176 x30 - 0.01176 x31
      - 0.01176 x32 - 0.01279 x33 - 0.01279 x34 - 0.01279 x35 - 0.01279 x36
      - 0.01427 x37 - 0.01427 x38 - 0.01427 x39 - 0.01427 x40 - 0.014525 x41
      - 0.014525 x42 - 0.014525 x43 - 0.014525 x44 - 0.01491 x45 - 0.01491 x46
      - 0.01491 x47 - 0.01491 x48 - 0.0150075 x49 - 0.0150075 x50
      - 0.0150075 x51 - 0.0150075 x52 - 0.0132775 x53 - 0.0132775 x54
      - 0.0132775 x55 - 0.0132775 x56 - 0.0127325 x57 - 0.0127325 x58
      - 0.0127325 x59 - 0.0127325 x60 - 0.0127225 x61 - 0.0127225 x62
      - 0.0127225 x63 - 0.0127225 x64 - 0.0137675 x65 - 0.0137675 x66
      - 0.0137675 x67 - 0.0137675 x68 - 0.0177625 x69 - 0.0177625 x70
      - 0.0177625 x71 - 0.0177625 x72 - 0.018715 x73 - 0.018715 x74
      - 0.018715 x75 - 0.018715 x76 - 0.0171175 x77 - 0.0171175 x78
      - 0.0171175 x79 - 0.0171175 x80 - 0.01404 x81 - 0.01404 x82 - 0.01404 x83
      - 0.01404 x84 - 0.0126725 x85 - 0.0126725 x86 - 0.0126725 x87
      - 0.0126725 x88 - 0.0132225 x89 - 0.0132225 x90 - 0.0132225 x91
      - 0.0132225 x92 - 0.0128425 x93 - 0.0128425 x94 - 0.0128425 x95
      - 0.0128425 x96 + [ 0.01 x1 ^2 + 0.01 x2 ^2 + 0.01 x3 ^2 + 0.01 x4 ^2
      + 0.01 x5 ^2 + 0.01 x6 ^2 + 0.01 x7 ^2 + 0.01 x8 ^2 + 0.01 x9 ^2
      + 0.01 x10 ^2 + 0.01 x11 ^2 + 0.01 x12 ^2 + 0.01 x13 ^2 + 0.01 x14 ^2
      + 0.01 x15 ^2 + 0.01 x16 ^2 + 0.01 x17 ^2 + 0.01 x18 ^2 + 0.01 x19 ^2
      + 0.01 x20 ^2 + 0.01 x21 ^2 + 0.01 x22 ^2 + 0.01 x23 ^2 + 0.01 x24 ^2
      + 0.01 x25 ^2 + 0.01 x26 ^2 + 0.01 x27 ^2 + 0.01 x28 ^2 + 0.01 x29 ^2
      + 0.01 x30 ^2 + 0.01 x31 ^2 + 0.01 x32 ^2 + 0.01 x33 ^2 + 0.01 x34 ^2
      + 0.01 x35 ^2 + 0.01 x36 ^2 + 0.01 x37 ^2 + 0.01 x38 ^2 + 0.01 x39 ^2
      + 0.01 x40 ^2 + 0.01 x41 ^2 + 0.01 x42 ^2 + 0.01 x43 ^2 + 0.01 x44 ^2
      + 0.01 x45 ^2 + 0.01 x46 ^2 + 0.01 x47 ^2 + 0.01 x48 ^2 + 0.01 x49 ^2
      + 0.01 x50 ^2 + 0.01 x51 ^2 + 0.01 x52 ^2 + 0.01 x53 ^2 + 0.01 x54 ^2
      + 0.01 x55 ^2 + 0.01 x56 ^2 + 0.01 x57 ^2 + 0.01 x58 ^2 + 0.01 x59 ^2
      + 0.01 x60 ^2 + 0.01 x61 ^2 + 0.01 x62 ^2 + 0.01 x63 ^2 + 0.01 x64 ^2
      + 0.01 x65 ^2 + 0.01 x66 ^2 + 0.01 x67 ^2 + 0.01 x68 ^2 + 0.01 x69 ^2
      + 0.01 x70 ^2 + 0.01 x71 ^2 + 0.01 x72 ^2 + 0.01 x73 ^2 + 0.01 x74 ^2
      + 0.01 x75 ^2 + 0.01 x76 ^2 + 0.01 x77 ^2 + 0.01 x78 ^2 + 0.01 x79 ^2
      + 0.01 x80 ^2 + 0.01 x81 ^2 + 0.01 x82 ^2 + 0.01 x83 ^2 + 0.01 x84 ^2
      + 0.01 x85 ^2 + 0.01 x86 ^2 + 0.01 x87 ^2 + 0.01 x88 ^2 + 0.01 x89 ^2
      + 0.01 x90 ^2 + 0.01 x91 ^2 + 0.01 x92 ^2 + 0.01 x93 ^2 + 0.01 x94 ^2
      + 0.01 x95 ^2 + 0.01 x96 ^2 ] / 2
Subject To
 c1:   x1 <= 100000
 c3:   x1 >= -60
 c5:   x2 <= 100000
 c7:   x2 >= -60
 c9:   x3 <= 100000
 c11:  x3 >= -60
 c13:  x4 <= 100000
 c15:  x4 >= -60
 c17:  x5 <= 100000
 c19:  x5 >= -60
 c21:  x6 <= 100000
 c23:  x6 >= -60
 c25:  x7 <= 100000
 c27:  x7 >= -60
 c29:  x8 <= 100000
 c31:  x8 >= -60
 c33:  x9 <= 100000
 c35:  x9 >= -60
 c37:  x10 <= 100000
 c39:  x10 >= -60
 c41:  x11 <= 100000
 c43:  x11 >= -60
 c45:  x12 <= 100000
 c47:  x12 >= -60
 c49:  x13 <= 100000
 c51:  x13 >= -60
 c53:  x14 <= 100000
 c55:  x14 >= -60
 c57:  x15 <= 100000
 c59:  x15 >= -60
 c61:  x16 <= 100000
 c63:  x16 >= -60
 c65:  x17 <= 100000
 c67:  x17 >= -60
 c69:  x18 <= 100000
 c71:  x18 >= -60
 c73:  x19 <= 100000
 c75:  x19 >= -60
 c77:  x20 <= 100000
 c79:  x20 >= -60
 c81:  x21 <= 100000
 c83:  x21 >= -60
 c85:  x22 <= 100000
 c87:  x22 >= -60
 c89:  x23 <= 100000
 c91:  x23 >= -60
 c93:  x24 <= 100000
 c95:  x24 >= -60
 c97:  x25 <= 100000
 c99:  x25 >= -60
 c101: x26 <= 100000
 c103: x26 >= -60
 c105: x27 <= 100000
 c107: x27 >= -60
 c109: x28 <= 100000
 c111: x28 >= -60
 c113: x29 <= 100000
 c115: x29 >= -60
 c117: x30 <= 100000
 c119: x30 >= -60
 c121: x31 <= 100000
 c123: x31 >= -60
 c125: x32 <= 100000
 c127: x32 >= -60
 c129: x33 <= 100000
 c131: x33 >= -60
 c133: x34 <= 100000
 c135: x34 >= -60
 c137: x35 <= 100000
 c139: x35 >= -60
 c141: x36 <= 100000
 c143: x36 >= -60
 c145: x37 <= 100000
 c147: x37 >= -60
 c149: x38 <= 100000
 c151: x38 >= -60
 c153: x39 <= 100000
 c155: x39 >= -60
 c157: x40 <= 100000
 c159: x40 >= -60
 c161: x41 <= 100000
 c163: x41 >= -60
 c165: x42 <= 100000
 c167: x42 >= -60
 c169: x43 <= 100000
 c171: x43 >= -60
 c173: x44 <= 100000
 c175: x44 >= -60
 c177: x45 <= 100000
 c179: x45 >= -60
 c181: x46 <= 100000
 c183: x46 >= -60
 c185: x47 <= 100000
 c187: x47 >= -60
 c189: x48 <= 100000
 c191: x48 >= -60
 c193: x49 <= 100000
 c195: x49 >= -60
 c197: x50 <= 100000
 c199: x50 >= -60
 c201: x51 <= 100000
 c203: x51 >= -60
 c205: x52 <= 100000
 c207: x52 >= -60
 c209: x53 <= 100000
 c211: x53 >= -60
 c213: x54 <= 100000
 c215: x54 >= -60
 c217: x55 <= 100000
 c219: x55 >= -60
 c221: x56 <= 100000
 c223: x56 >= -60
 c225: x57 <= 100000
 c227: x57 >= -60
 c229: x58 <= 100000
 c231: x58 >= -60
 c233: x59 <= 100000
 c235: x59 >= -60
 c237: x60 <= 100000
 c239: x60 >= -60
 c241: x61 <= 100000
 c243: x61 >= -60
 c245: x62 <= 100000
 c247: x62 >= -60
 c249: x63 <= 100000
 c251: x63 >= -60
 c253: x64 <= 100000
 c255: x64 >= -60
 c257: x65 <= 100000
 c259: x65 >= -60
 c261: x66 <= 100000
 c263: x66 >= -60
 c265: x67 <= 100000
 c267: x67 >= -60
 c269: x68 <= 100000
 c271: x68 >= -60
 c273: x69 <= 100000
 c275: x69 >= -60
 c277: x70 <= 100000
 c279: x70 >= -60
 c281: x71 <= 100000
 c283: x71 >= -60
 c285: x72 <= 100000
 c287: x72 >= -60
 c289: x73 <= 100000
 c291: x73 >= -60
 c293: x74 <= 100000
 c295: x74 >= -60
 c297: x75 <= 100000
 c299: x75 >= -60
 c301: x76 <= 100000
 c303: x76 >= -60
 c305: x77 <= 100000
 c307: x77 >= -60
 c309: x78 <= 100000
 c311: x78 >= -60
 c313: x79 <= 100000
 c315: x79 >= -60
 c317: x80 <= 100000
 c319: x80 >= -60
 c321: x81 <= 100000
 c323: x81 >= -60
 c325: x82 <= 100000
 c327: x82 >= -60
 c329: x83 <= 100000
 c331: x83 >= -60
 c333: x84 <= 100000
 c335: x84 >= -60
 c337: x85 <= 100000
 c339: x85 >= -60
 c341: x86 <= 100000
 c343: x86 >= -60
 c345: x87 <= 100000
 c347: x87 >= -60
 c349: x88 <= 100000
 c351: x88 >= -60
 c353: x89 <= 100000
 c355: x89 >= -60
 c357: x90 <= 100000
 c359: x90 >= -60
 c361: x91 <= 100000
 c363: x91 >= -60
 c365: x92 <= 100000
 c367: x92 >= -60
 c369: x93 <= 100000
 c371: x93 >= -60
 c373: x94 <= 100000
 c375: x94 >= -60
 c377: x95 <= 100000
 c379: x95 >= -60
 c381: x96 <= 100000
 c383: x96 >= -60
Bounds
      x1 >= 4.94065645841247e-324
      x2 >= 4.94065645841247e-324
      x3 >= 4.94065645841247e-324
      x4 >= 4.94065645841247e-324
      x5 >= 4.94065645841247e-324
      x6 >= 4.94065645841247e-324
      x7 >= 4.94065645841247e-324
      x8 >= 4.94065645841247e-324
      x9 >= 4.94065645841247e-324
      x10 >= 4.94065645841247e-324
      x11 >= 4.94065645841247e-324
      x12 >= 4.94065645841247e-324
      x13 >= 4.94065645841247e-324
      x14 >= 4.94065645841247e-324
      x15 >= 4.94065645841247e-324
      x16 >= 4.94065645841247e-324
      x17 >= 4.94065645841247e-324
      x18 >= 4.94065645841247e-324
      x19 >= 4.94065645841247e-324
      x20 >= 4.94065645841247e-324
      x21 >= 4.94065645841247e-324
      x22 >= 4.94065645841247e-324
      x23 >= 4.94065645841247e-324
      x24 >= 4.94065645841247e-324
      x25 >= 4.94065645841247e-324
      x26 >= 4.94065645841247e-324
      x27 >= 4.94065645841247e-324
      x28 >= 4.94065645841247e-324
      x29 >= 4.94065645841247e-324
      x30 >= 4.94065645841247e-324
      x31 >= 4.94065645841247e-324
      x32 >= 4.94065645841247e-324
      x33 >= 4.94065645841247e-324
      x34 >= 4.94065645841247e-324
      x35 >= 4.94065645841247e-324
      x36 >= 4.94065645841247e-324
      x37 >= 4.94065645841247e-324
      x38 >= 4.94065645841247e-324
      x39 >= 4.94065645841247e-324
      x40 >= 4.94065645841247e-324
      x41 >= 4.94065645841247e-324
      x42 >= 4.94065645841247e-324
      x43 >= 4.94065645841247e-324
      x44 >= 4.94065645841247e-324
      x45 >= 4.94065645841247e-324
      x46 >= 4.94065645841247e-324
      x47 >= 4.94065645841247e-324
      x48 >= 4.94065645841247e-324
      x49 >= 4.94065645841247e-324
      x50 >= 4.94065645841247e-324
      x51 >= 4.94065645841247e-324
      x52 >= 4.94065645841247e-324
      x53 >= 4.94065645841247e-324
      x54 >= 4.94065645841247e-324
      x55 >= 4.94065645841247e-324
      x56 >= 4.94065645841247e-324
      x57 >= 4.94065645841247e-324
      x58 >= 4.94065645841247e-324
      x59 >= 4.94065645841247e-324
      x60 >= 4.94065645841247e-324
      x61 >= 4.94065645841247e-324
      x62 >= 4.94065645841247e-324
      x63 >= 4.94065645841247e-324
      x64 >= 4.94065645841247e-324
      x65 >= 4.94065645841247e-324
      x66 >= 4.94065645841247e-324
      x67 >= 4.94065645841247e-324
      x68 >= 4.94065645841247e-324
      x69 >= 4.94065645841247e-324
      x70 >= 4.94065645841247e-324
      x71 >= 4.94065645841247e-324
      x72 >= 4.94065645841247e-324
      x73 >= 4.94065645841247e-324
      x74 >= 4.94065645841247e-324
      x75 >= 4.94065645841247e-324
      x76 >= 4.94065645841247e-324
      x77 >= 4.94065645841247e-324
      x78 >= 4.94065645841247e-324
      x79 >= 4.94065645841247e-324
      x80 >= 4.94065645841247e-324
      x81 >= 4.94065645841247e-324
      x82 >= 4.94065645841247e-324
      x83 >= 4.94065645841247e-324
      x84 >= 4.94065645841247e-324
      x85 >= 4.94065645841247e-324
      x86 >= 4.94065645841247e-324
      x87 >= 4.94065645841247e-324
      x88 >= 4.94065645841247e-324
      x89 >= 4.94065645841247e-324
      x90 >= 4.94065645841247e-324
      x91 >= 4.94065645841247e-324
      x92 >= 4.94065645841247e-324
      x93 >= 4.94065645841247e-324
      x94 >= 4.94065645841247e-324
      x95 >= 4.94065645841247e-324
      x96 >= 4.94065645841247e-324
End
